2363.06
0 9 11 4 1 3 2 5 7 0
0 25 16 24 19 17 15 31 29 12 6 10 8 14 0
0 23 33 34 27 30 22 18 26 20 21 32 53 50 39 35 0
0 46 28 36 42 41 37 38 40 72 0
0 54 63 47 49 43 48 44 45 51 0
0 55 60 57 56 59 61 62 58 66 64 83 52 84 67 68 73 0
0 77 81 82 79 78 65 74 71 97 89 91 94 90 86 69 13 0
0 80 95 92 75 0
0 87 85 88 76 98 0
0 96 93 99 0
0 100 70 0
